NAME: tsp30-5
TYPE: TSP
DIMENSION: 30
EDGE_WEIGHT_TYPE: EUC_2D
NODE_COORD_SECTION
0 27 35
1 100 100
2 81 21
3 67 95
4 37 49
5 85 65
6 49 4
7 29 81
8 23 97
9 7 46
10 6 72
11 76 77
12 99 25
13 48 95
14 25 64
15 37 51
16 93 21
17 68 65
18 3 69
19 66 63
20 79 70
21 45 79
22 91 4
23 46 17
24 15 68
25 92 38
26 63 99
27 1 100
28 57 80
29 94 61
EOF